p cnf 48 112
1 2 3 5 6 7 9 10 11 0
1 2 4 5 6 8 9 10 12 0
1 3 4 5 7 8 9 11 12 0
2 3 4 6 7 8 10 11 12 0
1 2 3 5 6 7 13 14 15 0
1 2 4 5 6 8 13 14 16 0
1 3 4 5 7 8 13 15 16 0
2 3 4 6 7 8 14 15 16 0
1 2 3 9 10 11 13 14 15 0
1 2 4 9 10 12 13 14 16 0
1 3 4 9 11 12 13 15 16 0
2 3 4 10 11 12 14 15 16 0
5 6 7 9 10 11 13 14 15 0
5 6 8 9 10 12 13 14 16 0
5 7 8 9 11 12 13 15 16 0
6 7 8 10 11 12 14 15 16 0
17 18 19 21 22 23 25 26 27 0
17 18 20 21 22 24 25 26 28 0
17 19 20 21 23 24 25 27 28 0
18 19 20 22 23 24 26 27 28 0
17 18 19 21 22 23 29 30 31 0
17 18 20 21 22 24 29 30 32 0
17 19 20 21 23 24 29 31 32 0
18 19 20 22 23 24 30 31 32 0
17 18 19 25 26 27 29 30 31 0
17 18 20 25 26 28 29 30 32 0
17 19 20 25 27 28 29 31 32 0
18 19 20 26 27 28 30 31 32 0
21 22 23 25 26 27 29 30 31 0
21 22 24 25 26 28 29 30 32 0
21 23 24 25 27 28 29 31 32 0
22 23 24 26 27 28 30 31 32 0
33 34 35 37 38 39 41 42 43 0
33 34 36 37 38 40 41 42 44 0
33 35 36 37 39 40 41 43 44 0
34 35 36 38 39 40 42 43 44 0
33 34 35 37 38 39 45 46 47 0
33 34 36 37 38 40 45 46 48 0
33 35 36 37 39 40 45 47 48 0
34 35 36 38 39 40 46 47 48 0
33 34 35 41 42 43 45 46 47 0
33 34 36 41 42 44 45 46 48 0
33 35 36 41 43 44 45 47 48 0
34 35 36 42 43 44 46 47 48 0
37 38 39 41 42 43 45 46 47 0
37 38 40 41 42 44 45 46 48 0
37 39 40 41 43 44 45 47 48 0
38 39 40 42 43 44 46 47 48 0
-1 -17 -33 0
-1 -18 -34 0
-1 -19 -35 0
-1 -20 -36 0
-2 -17 -37 0
-2 -18 -38 0
-2 -19 -39 0
-2 -20 -40 0
-3 -17 -41 0
-3 -18 -42 0
-3 -19 -43 0
-3 -20 -44 0
-4 -17 -45 0
-4 -18 -46 0
-4 -19 -47 0
-4 -20 -48 0
-5 -21 -33 0
-5 -22 -34 0
-5 -23 -35 0
-5 -24 -36 0
-6 -21 -37 0
-6 -22 -38 0
-6 -23 -39 0
-6 -24 -40 0
-7 -21 -41 0
-7 -22 -42 0
-7 -23 -43 0
-7 -24 -44 0
-8 -21 -45 0
-8 -22 -46 0
-8 -23 -47 0
-8 -24 -48 0
-9 -25 -33 0
-9 -26 -34 0
-9 -27 -35 0
-9 -28 -36 0
-10 -25 -37 0
-10 -26 -38 0
-10 -27 -39 0
-10 -28 -40 0
-11 -25 -41 0
-11 -26 -42 0
-11 -27 -43 0
-11 -28 -44 0
-12 -25 -45 0
-12 -26 -46 0
-12 -27 -47 0
-12 -28 -48 0
-13 -29 -33 0
-13 -30 -34 0
-13 -31 -35 0
-13 -32 -36 0
-14 -29 -37 0
-14 -30 -38 0
-14 -31 -39 0
-14 -32 -40 0
-15 -29 -41 0
-15 -30 -42 0
-15 -31 -43 0
-15 -32 -44 0
-16 -29 -45 0
-16 -30 -46 0
-16 -31 -47 0
-16 -32 -48 0
